NAME : netgen18-5_24
COMMENT : Generated using the function generateClusteredNetwork from the R-package netgen (Bossek,2015) - Number of clusters: 5
TYPE : TSP
DIMENSION : 18
EDGE_WEIGHT_TYPE : EUC_2D
NODE_COORD_SECTION
1 8.660966249 67.5324602329
2 16.289261151 82.4400331894
3 12.7319655407 67.6736745101
4 53.3245638053 10.3221172251
5 59.9950833099 19.5774553043
6 66.2191147992 33.0938001187
7 59.177788168 5.737334446
8 58.2560340072 5.2206286345
9 59.5503385786 24.7553765034
10 44.2490510168 76.2308580636
11 58.1782889882 78.5302798726
12 49.5083517639 84.1516637958
13 85.808874049 41.0901939316
14 91.1343821948 54.4045384325
15 99.3922228359 50.7913598506
16 13.4539771913 26.165188802
17 13.1257449871 24.5186643476
18 23.2032003753 20.6093240656
EOF
